# Solution for model GasLib-40
# Objective value = 1.1963515570885972e+01
loadshed[innode_1] 0
loadshed[innode_2] 0
loadshed[innode_3] 0
loadshed[innode_4] 0
loadshed[innode_5] 0
loadshed[innode_6] 0
loadshed[innode_7] 0
loadshed[innode_8] 0
loadshed[source_1] -2.4186335408345161e-01
loadshed[source_2] 1.3042564838359028e-01
loadshed[source_3] 1.8711291950204323e-01
loadshed[sink_1] 0
loadshed[sink_2] 0
loadshed[sink_3] 0
loadshed[sink_4] 0
loadshed[sink_5] 0
loadshed[sink_6] 0
loadshed[sink_7] 0
loadshed[sink_8] 0
loadshed[sink_9] 0
loadshed[sink_10] 0
loadshed[sink_11] 0
loadshed[sink_12] 0.731527066754811
loadshed[sink_13] 0
loadshed[sink_14] 0
loadshed[sink_15] 0
loadshed[sink_16] 0
loadshed[sink_17] 0
loadshed[sink_18] 0
loadshed[sink_19] 0
loadshed[sink_20] 0
loadshed[sink_21] 0
loadshed[sink_22] 0
loadshed[sink_23] 0
loadshed[sink_24] 0
loadshed[sink_25] 0
loadshed[sink_26] 0
loadshed[sink_27] 0
loadshed[sink_28] 0
loadshed[sink_29] 0
flow[source_1,sink_3] 1.9632652260909566e+02
flow[innode_1,sink_16] 1.6354166666666970e+01
flow[innode_6,sink_13] -1.4030377691221886e+01
flow[sink_13,sink_14] -3.0384544357888554e+01
flow[sink_14,sink_10] -4.6738711024555222e+01
flow[sink_25,sink_26] 2.0064065109578087e+02
flow[sink_26,sink_9] 1.2618645958132817e+02
flow[sink_9,sink_18] 1.0983229291466149e+02
flow[sink_26,sink_4] 58.1000248477859
flow[sink_4,sink_20] 0
flow[sink_18,sink_6] 9.3478126247994823e+01
flow[sink_25,innode_8] -1.6361818927575931e+02
flow[sink_6,sink_7] 4.4415626247994624e+01
flow[sink_6,sink_22] 3.2708333333333641e+01
flow[sink_7,sink_24] 3.7098984429114033e+01
flow[sink_22,sink_1] 1.6354166666666970e+01
flow[sink_24,sink_21] 2.0744817762447362e+01
flow[sink_21,sink_12] 4.3906510957806955e+00
flow[sink_7,sink_5] -9.0375248477859174e+00
flow[sink_5,sink_17] -2.5391691514452646e+01
flow[sink_17,sink_4] -4.1745858181119317e+01
flow[sink_17,sink_8] 0
flow[sink_3,sink_23] 16.3541666666697
flow[sink_8,sink_20] -1.6354166666668334e+01
flow[sink_25,sink_20] 3.2708333333335005e+01
flow[sink_25,sink_15] -7.2054584128801338e+01
flow[sink_15,sink_29] 0
flow[sink_29,sink_28] 1.6354166666667879e+01
flow[sink_29,sink_2] 1.0476291746213468e+02
flow[sink_2,sink_15] 8.8408750795468009e+01
flow[sink_29,innode_7] -1.3747125079546922e+02
flow[innode_4,sink_19] 5.0202323234220785e+01
flow[sink_19,innode_3] 4.6750586603291346e+01
flow[innode_4,innode_5] 78.307221123668
flow[sink_27,innode_5] -78.307221123668
flow[sink_27,sink_19] 6.1953054457001329e+01
flow[sink_10,sink_11] 3.2708333333333641e+01
flow[sink_10,innode_2] -4.9050624421264182e+01
flow[sink_10,innode_3] -4.6750586603291346e+01
flow[innode_6,sink_25] 1.4030377691221886e+01
flow[sink_11,innode_1] 1.6354166666666970e+01
flow[sink_19,innode_2] 4.9050624421264182e+01
flow[source_3,innode_4] 1.2850954435788879e+02
flow[source_2,innode_7] 1.3747125079546922e+02
flow[sink_3,innode_8] 1.6361818927575931e+02
pressure[innode_1] 7.6235196575551910e+01
pressure[innode_2] 7.8979425969533054e+01
pressure[innode_3] 78.8759020894297
pressure[innode_4] 81.01325
pressure[innode_5] 8.0959386164158587e+01
pressure[innode_6] 74.044499621831
pressure[innode_7] 81.01325
pressure[innode_8] 8.0357005434367863e+01
pressure[source_1] 81.01325
pressure[source_2] 81.01325
pressure[source_3] 81.01325
pressure[sink_1] 4.3789629494294537e+01
pressure[sink_2] 74.6826696527881
pressure[sink_3] 8.0357005434367863e+01
pressure[sink_4] 5.2526508866150635e+01
pressure[sink_5] 4.9039622337771689e+01
pressure[sink_6] 4.5890707104681908e+01
pressure[sink_7] 4.5280986427126230e+01
pressure[sink_8] 6.5107277541910790e+01
pressure[sink_9] 5.2360911110645581e+01
pressure[sink_10] 7.6386897883155456e+01
pressure[sink_11] 7.6235196575551910e+01
pressure[sink_12] 1.0132499999999998e+00
pressure[sink_13] 7.4121846749348776e+01
pressure[sink_14] 74.1762224796681
pressure[sink_15] 7.4394034566415726e+01
pressure[sink_16] 7.5213546740734230e+01
pressure[sink_17] 5.0931119819180573e+01
pressure[sink_18] 4.8386851396461225e+01
pressure[sink_19] 7.8979425969533054e+01
pressure[sink_20] 6.6246932965499084e+01
pressure[sink_21] 2.5756839611492688e+00
pressure[sink_22] 4.4853398636649544e+01
pressure[sink_23] 8.0192287422708077e+01
pressure[sink_24] 2.8054135436339820e+00
pressure[sink_25] 74.044499621831
pressure[sink_26] 5.9913496394875196e+01
pressure[sink_27] 8.0309580925018452e+01
pressure[sink_28] 7.7041150310610277e+01
pressure[sink_29] 7.7336432584227452e+01
interdiction[source_1,sink_3] 0
interdiction[innode_1,sink_16] 0
interdiction[innode_6,sink_13] 0
interdiction[sink_13,sink_14] 0
interdiction[sink_14,sink_10] 0
interdiction[sink_25,sink_26] 0
interdiction[sink_26,sink_9] 0
interdiction[sink_9,sink_18] 0
interdiction[sink_26,sink_4] 0
interdiction[sink_4,sink_20] 1
interdiction[sink_18,sink_6] 0
interdiction[sink_25,innode_8] 0
interdiction[sink_6,sink_7] 0
interdiction[sink_6,sink_22] 0
interdiction[sink_7,sink_24] 0
interdiction[sink_22,sink_1] 0
interdiction[sink_24,sink_21] 0
interdiction[sink_21,sink_12] 0
interdiction[sink_7,sink_5] 0
interdiction[sink_5,sink_17] 0
interdiction[sink_17,sink_4] 0
interdiction[sink_17,sink_8] 1
interdiction[sink_3,sink_23] 0
interdiction[sink_8,sink_20] 0
interdiction[sink_25,sink_20] 0
interdiction[sink_25,sink_15] 0
interdiction[sink_15,sink_29] 1
interdiction[sink_29,sink_28] 0
interdiction[sink_29,sink_2] 0
interdiction[sink_2,sink_15] 0
interdiction[sink_29,innode_7] 0
interdiction[innode_4,sink_19] 0
interdiction[sink_19,innode_3] 0
interdiction[innode_4,innode_5] 0
interdiction[sink_27,innode_5] 0
interdiction[sink_27,sink_19] 0
interdiction[sink_10,sink_11] 0
interdiction[sink_10,innode_2] 0
interdiction[sink_10,innode_3] 0
interdiction[innode_6,sink_25] 0
interdiction[sink_11,innode_1] 0
interdiction[sink_19,innode_2] 0
interdiction[source_3,innode_4] 0
interdiction[source_2,innode_7] 0
interdiction[sink_3,innode_8] 0
WCcheckFlow[source_1,sink_3] 39
WCcheckFlow[innode_1,sink_16] 1
WCcheckFlow[innode_6,sink_13] 13
WCcheckFlow[sink_13,sink_14] 12
WCcheckFlow[sink_14,sink_10] 11
WCcheckFlow[sink_25,sink_26] 13
WCcheckFlow[sink_26,sink_9] 11
WCcheckFlow[sink_9,sink_18] 10
WCcheckFlow[sink_26,sink_4] 1
WCcheckFlow[sink_4,sink_20] 0
WCcheckFlow[sink_18,sink_6] 9
WCcheckFlow[sink_25,innode_8] -36
WCcheckFlow[sink_6,sink_7] 6
WCcheckFlow[sink_6,sink_22] 2
WCcheckFlow[sink_7,sink_24] 3
WCcheckFlow[sink_22,sink_1] 1
WCcheckFlow[sink_24,sink_21] 2
WCcheckFlow[sink_21,sink_12] 1
WCcheckFlow[sink_7,sink_5] 2
WCcheckFlow[sink_5,sink_17] 1
WCcheckFlow[sink_17,sink_4] 0
WCcheckFlow[sink_17,sink_8] 0
WCcheckFlow[sink_3,sink_23] 1
WCcheckFlow[sink_8,sink_20] -1
WCcheckFlow[sink_25,sink_20] 2
WCcheckFlow[sink_25,sink_15] 6
WCcheckFlow[sink_15,sink_29] 0
WCcheckFlow[sink_29,sink_28] 1
WCcheckFlow[sink_29,sink_2] -4
WCcheckFlow[sink_2,sink_15] -5
WCcheckFlow[sink_29,innode_7] 2
WCcheckFlow[innode_4,sink_19] -4
WCcheckFlow[sink_19,innode_3] -5
WCcheckFlow[innode_4,innode_5] 2
WCcheckFlow[sink_27,innode_5] -1
WCcheckFlow[sink_27,sink_19] 0
WCcheckFlow[sink_10,sink_11] 3
WCcheckFlow[sink_10,innode_2] 1
WCcheckFlow[sink_10,innode_3] 6
WCcheckFlow[innode_6,sink_25] -14
WCcheckFlow[sink_11,innode_1] 2
WCcheckFlow[sink_19,innode_2] 0
WCcheckFlow[source_3,innode_4] -1
WCcheckFlow[source_2,innode_7] -1
WCcheckFlow[sink_3,innode_8] 37
